Nodes = {"Hannover", "Frankfurt", "Hamburg", "Norden", "Bremen", "Berlin", "Muenchen", "Ulm", "Nuernberg", "Stuttgart", "Karlsruhe", "Mannheim", "Essen", "Dortmund", "Duesseldorf", "Koeln", "Leipzig"};
Arcs = {<"Hannover","Frankfurt",42,0>, <"Hannover","Hamburg",42,0>, <"Hannover","Norden",42,3>, <"Hannover","Bremen",42,0>, <"Hannover","Berlin",42,0>, <"Hannover","Muenchen",42,5>, <"Hannover","Ulm",42,4>, <"Hannover","Nuernberg",42,3>, <"Hannover","Stuttgart",42,4>, <"Hannover","Karlsruhe",42,4>, <"Hannover","Mannheim",42,3>, <"Hannover","Essen",42,3>, <"Hannover","Dortmund",42,0>, <"Hannover","Duesseldorf",42,3>, <"Hannover","Koeln",42,3>, <"Hannover","Leipzig",42,0>, <"Frankfurt","Hannover",42,0>, <"Frankfurt","Hamburg",42,4>, <"Frankfurt","Norden",42,4>, <"Frankfurt","Bremen",42,3>, <"Frankfurt","Berlin",42,5>, <"Frankfurt","Muenchen",42,4>, <"Frankfurt","Ulm",42,2>, <"Frankfurt","Nuernberg",42,0>, <"Frankfurt","Stuttgart",42,1>, <"Frankfurt","Karlsruhe",42,1>, <"Frankfurt","Mannheim",42,0>, <"Frankfurt","Essen",42,2>, <"Frankfurt","Dortmund",42,2>, <"Frankfurt","Duesseldorf",42,2>, <"Frankfurt","Koeln",42,0>, <"Frankfurt","Leipzig",42,0>, <"Hamburg","Hannover",42,0>, <"Hamburg","Frankfurt",42,4>, <"Hamburg","Norden",42,3>, <"Hamburg","Bremen",42,0>, <"Hamburg","Berlin",42,0>, <"Hamburg","Muenchen",42,6>, <"Hamburg","Ulm",42,5>, <"Hamburg","Nuernberg",42,4>, <"Hamburg","Stuttgart",42,5>, <"Hamburg","Karlsruhe",42,5>, <"Hamburg","Mannheim",42,4>, <"Hamburg","Essen",42,4>, <"Hamburg","Dortmund",42,3>, <"Hamburg","Duesseldorf",42,4>, <"Hamburg","Koeln",42,4>, <"Hamburg","Leipzig",42,3>, <"Norden","Hannover",42,3>, <"Norden","Frankfurt",42,4>, <"Norden","Hamburg",42,3>, <"Norden","Bremen",42,0>, <"Norden","Berlin",42,6>, <"Norden","Muenchen",42,7>, <"Norden","Ulm",42,6>, <"Norden","Nuernberg",42,6>, <"Norden","Stuttgart",42,5>, <"Norden","Karlsruhe",42,5>, <"Norden","Mannheim",42,4>, <"Norden","Essen",42,2>, <"Norden","Dortmund",42,0>, <"Norden","Duesseldorf",42,2>, <"Norden","Koeln",42,3>, <"Norden","Leipzig",42,6>, <"Bremen","Hannover",42,0>, <"Bremen","Frankfurt",42,3>, <"Bremen","Hamburg",42,0>, <"Bremen","Norden",42,0>, <"Bremen","Berlin",42,5>, <"Bremen","Muenchen",42,6>, <"Bremen","Ulm",42,5>, <"Bremen","Nuernberg",42,4>, <"Bremen","Stuttgart",42,4>, <"Bremen","Karlsruhe",42,4>, <"Bremen","Mannheim",42,4>, <"Bremen","Essen",42,2>, <"Bremen","Dortmund",42,2>, <"Bremen","Duesseldorf",42,3>, <"Bremen","Koeln",42,3>, <"Bremen","Leipzig",42,4>, <"Berlin","Hannover",42,0>, <"Berlin","Frankfurt",42,5>, <"Berlin","Hamburg",42,0>, <"Berlin","Norden",42,6>, <"Berlin","Bremen",42,5>, <"Berlin","Muenchen",42,5>, <"Berlin","Ulm",42,5>, <"Berlin","Nuernberg",42,4>, <"Berlin","Stuttgart",42,6>, <"Berlin","Karlsruhe",42,6>, <"Berlin","Mannheim",42,6>, <"Berlin","Essen",42,7>, <"Berlin","Dortmund",42,6>, <"Berlin","Duesseldorf",42,7>, <"Berlin","Koeln",42,7>, <"Berlin","Leipzig",42,0>, <"Muenchen","Hannover",42,5>, <"Muenchen","Frankfurt",42,4>, <"Muenchen","Hamburg",42,6>, <"Muenchen","Norden",42,7>, <"Muenchen","Bremen",42,6>, <"Muenchen","Berlin",42,5>, <"Muenchen","Ulm",42,0>, <"Muenchen","Nuernberg",42,0>, <"Muenchen","Stuttgart",42,2>, <"Muenchen","Karlsruhe",42,3>, <"Muenchen","Mannheim",42,3>, <"Muenchen","Essen",42,6>, <"Muenchen","Dortmund",42,5>, <"Muenchen","Duesseldorf",42,6>, <"Muenchen","Koeln",42,5>, <"Muenchen","Leipzig",42,3>, <"Ulm","Hannover",42,4>, <"Ulm","Frankfurt",42,2>, <"Ulm","Hamburg",42,5>, <"Ulm","Norden",42,6>, <"Ulm","Bremen",42,5>, <"Ulm","Berlin",42,5>, <"Ulm","Muenchen",42,0>, <"Ulm","Nuernberg",42,2>, <"Ulm","Stuttgart",42,0>, <"Ulm","Karlsruhe",42,2>, <"Ulm","Mannheim",42,2>, <"Ulm","Essen",42,4>, <"Ulm","Dortmund",42,4>, <"Ulm","Duesseldorf",42,4>, <"Ulm","Koeln",42,4>, <"Ulm","Leipzig",42,4>, <"Nuernberg","Hannover",42,3>, <"Nuernberg","Frankfurt",42,0>, <"Nuernberg","Hamburg",42,4>, <"Nuernberg","Norden",42,6>, <"Nuernberg","Bremen",42,4>, <"Nuernberg","Berlin",42,4>, <"Nuernberg","Muenchen",42,0>, <"Nuernberg","Ulm",42,2>, <"Nuernberg","Stuttgart",42,0>, <"Nuernberg","Karlsruhe",42,3>, <"Nuernberg","Mannheim",42,3>, <"Nuernberg","Essen",42,5>, <"Nuernberg","Dortmund",42,4>, <"Nuernberg","Duesseldorf",42,5>, <"Nuernberg","Koeln",42,4>, <"Nuernberg","Leipzig",42,0>, <"Stuttgart","Hannover",42,4>, <"Stuttgart","Frankfurt",42,1>, <"Stuttgart","Hamburg",42,5>, <"Stuttgart","Norden",42,5>, <"Stuttgart","Bremen",42,4>, <"Stuttgart","Berlin",42,6>, <"Stuttgart","Muenchen",42,2>, <"Stuttgart","Ulm",42,0>, <"Stuttgart","Nuernberg",42,0>, <"Stuttgart","Karlsruhe",42,0>, <"Stuttgart","Mannheim",42,1>, <"Stuttgart","Essen",42,3>, <"Stuttgart","Dortmund",42,3>, <"Stuttgart","Duesseldorf",42,3>, <"Stuttgart","Koeln",42,3>, <"Stuttgart","Leipzig",42,4>, <"Karlsruhe","Hannover",42,4>, <"Karlsruhe","Frankfurt",42,1>, <"Karlsruhe","Hamburg",42,5>, <"Karlsruhe","Norden",42,5>, <"Karlsruhe","Bremen",42,4>, <"Karlsruhe","Berlin",42,6>, <"Karlsruhe","Muenchen",42,3>, <"Karlsruhe","Ulm",42,2>, <"Karlsruhe","Nuernberg",42,3>, <"Karlsruhe","Stuttgart",42,0>, <"Karlsruhe","Mannheim",42,0>, <"Karlsruhe","Essen",42,3>, <"Karlsruhe","Dortmund",42,3>, <"Karlsruhe","Duesseldorf",42,3>, <"Karlsruhe","Koeln",42,2>, <"Karlsruhe","Leipzig",42,5>, <"Mannheim","Hannover",42,3>, <"Mannheim","Frankfurt",42,0>, <"Mannheim","Hamburg",42,4>, <"Mannheim","Norden",42,4>, <"Mannheim","Bremen",42,4>, <"Mannheim","Berlin",42,6>, <"Mannheim","Muenchen",42,3>, <"Mannheim","Ulm",42,2>, <"Mannheim","Nuernberg",42,3>, <"Mannheim","Stuttgart",42,1>, <"Mannheim","Karlsruhe",42,0>, <"Mannheim","Essen",42,2>, <"Mannheim","Dortmund",42,2>, <"Mannheim","Duesseldorf",42,2>, <"Mannheim","Koeln",42,2>, <"Mannheim","Leipzig",42,4>, <"Essen","Hannover",42,3>, <"Essen","Frankfurt",42,2>, <"Essen","Hamburg",42,4>, <"Essen","Norden",42,2>, <"Essen","Bremen",42,2>, <"Essen","Berlin",42,7>, <"Essen","Muenchen",42,6>, <"Essen","Ulm",42,4>, <"Essen","Nuernberg",42,5>, <"Essen","Stuttgart",42,3>, <"Essen","Karlsruhe",42,3>, <"Essen","Mannheim",42,2>, <"Essen","Dortmund",42,0>, <"Essen","Duesseldorf",42,0>, <"Essen","Koeln",42,1>, <"Essen","Leipzig",42,5>, <"Dortmund","Hannover",42,0>, <"Dortmund","Frankfurt",42,2>, <"Dortmund","Hamburg",42,3>, <"Dortmund","Norden",42,0>, <"Dortmund","Bremen",42,2>, <"Dortmund","Berlin",42,6>, <"Dortmund","Muenchen",42,5>, <"Dortmund","Ulm",42,4>, <"Dortmund","Nuernberg",42,4>, <"Dortmund","Stuttgart",42,3>, <"Dortmund","Karlsruhe",42,3>, <"Dortmund","Mannheim",42,2>, <"Dortmund","Essen",42,0>, <"Dortmund","Duesseldorf",42,1>, <"Dortmund","Koeln",42,0>, <"Dortmund","Leipzig",42,5>, <"Duesseldorf","Hannover",42,3>, <"Duesseldorf","Frankfurt",42,2>, <"Duesseldorf","Hamburg",42,4>, <"Duesseldorf","Norden",42,2>, <"Duesseldorf","Bremen",42,3>, <"Duesseldorf","Berlin",42,7>, <"Duesseldorf","Muenchen",42,6>, <"Duesseldorf","Ulm",42,4>, <"Duesseldorf","Nuernberg",42,5>, <"Duesseldorf","Stuttgart",42,3>, <"Duesseldorf","Karlsruhe",42,3>, <"Duesseldorf","Mannheim",42,2>, <"Duesseldorf","Essen",42,0>, <"Duesseldorf","Dortmund",42,1>, <"Duesseldorf","Koeln",42,0>, <"Duesseldorf","Leipzig",42,6>, <"Koeln","Hannover",42,3>, <"Koeln","Frankfurt",42,0>, <"Koeln","Hamburg",42,4>, <"Koeln","Norden",42,3>, <"Koeln","Bremen",42,3>, <"Koeln","Berlin",42,7>, <"Koeln","Muenchen",42,5>, <"Koeln","Ulm",42,4>, <"Koeln","Nuernberg",42,4>, <"Koeln","Stuttgart",42,3>, <"Koeln","Karlsruhe",42,2>, <"Koeln","Mannheim",42,2>, <"Koeln","Essen",42,1>, <"Koeln","Dortmund",42,0>, <"Koeln","Duesseldorf",42,0>, <"Koeln","Leipzig",42,5>, <"Leipzig","Hannover",42,0>, <"Leipzig","Frankfurt",42,0>, <"Leipzig","Hamburg",42,3>, <"Leipzig","Norden",42,6>, <"Leipzig","Bremen",42,4>, <"Leipzig","Berlin",42,0>, <"Leipzig","Muenchen",42,3>, <"Leipzig","Ulm",42,4>, <"Leipzig","Nuernberg",42,0>, <"Leipzig","Stuttgart",42,4>, <"Leipzig","Karlsruhe",42,5>, <"Leipzig","Mannheim",42,4>, <"Leipzig","Essen",42,5>, <"Leipzig","Dortmund",42,5>, <"Leipzig","Duesseldorf",42,6>, <"Leipzig","Koeln",42,5>};
Demands = {<"Hannover","Frankfurt",2,0>, <"Hannover","Hamburg",4,0>, <"Hannover","Norden",6,0>, <"Hannover","Bremen",8,0>, <"Hannover","Berlin",10,0>, <"Hannover","Muenchen",12,0>, <"Hannover","Ulm",14,0>, <"Hannover","Nuernberg",16,0>, <"Hannover","Stuttgart",18,0>, <"Hannover","Karlsruhe",20,0>, <"Hannover","Mannheim",22,0>, <"Hannover","Essen",24,0>, <"Hannover","Dortmund",26,0>, <"Hannover","Duesseldorf",28,0>, <"Hannover","Koeln",30,0>, <"Hannover","Leipzig",32,0>, <"Frankfurt","Hannover",2,0>, <"Frankfurt","Hamburg",2,0>, <"Frankfurt","Norden",4,0>, <"Frankfurt","Bremen",6,0>, <"Frankfurt","Berlin",8,0>, <"Frankfurt","Muenchen",10,0>, <"Frankfurt","Ulm",12,0>, <"Frankfurt","Nuernberg",14,0>, <"Frankfurt","Stuttgart",16,0>, <"Frankfurt","Karlsruhe",18,0>, <"Frankfurt","Mannheim",20,0>, <"Frankfurt","Essen",22,0>, <"Frankfurt","Dortmund",24,0>, <"Frankfurt","Duesseldorf",26,0>, <"Frankfurt","Koeln",28,0>, <"Frankfurt","Leipzig",30,0>, <"Hamburg","Hannover",4,0>, <"Hamburg","Frankfurt",2,0>, <"Hamburg","Norden",2,0>, <"Hamburg","Bremen",4,0>, <"Hamburg","Berlin",6,0>, <"Hamburg","Muenchen",8,0>, <"Hamburg","Ulm",10,0>, <"Hamburg","Nuernberg",12,0>, <"Hamburg","Stuttgart",14,0>, <"Hamburg","Karlsruhe",16,0>, <"Hamburg","Mannheim",18,0>, <"Hamburg","Essen",20,0>, <"Hamburg","Dortmund",22,0>, <"Hamburg","Duesseldorf",24,0>, <"Hamburg","Koeln",26,0>, <"Hamburg","Leipzig",28,0>, <"Norden","Hannover",6,0>, <"Norden","Frankfurt",4,0>, <"Norden","Hamburg",2,0>, <"Norden","Bremen",2,0>, <"Norden","Berlin",4,0>, <"Norden","Muenchen",6,0>, <"Norden","Ulm",8,0>, <"Norden","Nuernberg",10,0>, <"Norden","Stuttgart",12,0>, <"Norden","Karlsruhe",14,0>, <"Norden","Mannheim",16,0>, <"Norden","Essen",18,0>, <"Norden","Dortmund",20,0>, <"Norden","Duesseldorf",22,0>, <"Norden","Koeln",24,0>, <"Norden","Leipzig",26,0>, <"Bremen","Hannover",8,0>, <"Bremen","Frankfurt",6,0>, <"Bremen","Hamburg",4,0>, <"Bremen","Norden",2,0>, <"Bremen","Berlin",2,0>, <"Bremen","Muenchen",4,0>, <"Bremen","Ulm",6,0>, <"Bremen","Nuernberg",8,0>, <"Bremen","Stuttgart",10,0>, <"Bremen","Karlsruhe",12,0>, <"Bremen","Mannheim",14,0>, <"Bremen","Essen",16,0>, <"Bremen","Dortmund",18,0>, <"Bremen","Duesseldorf",20,0>, <"Bremen","Koeln",22,0>, <"Bremen","Leipzig",24,0>, <"Berlin","Hannover",10,0>, <"Berlin","Frankfurt",8,0>, <"Berlin","Hamburg",6,0>, <"Berlin","Norden",4,0>, <"Berlin","Bremen",2,0>, <"Berlin","Muenchen",2,0>, <"Berlin","Ulm",4,0>, <"Berlin","Nuernberg",6,0>, <"Berlin","Stuttgart",8,0>, <"Berlin","Karlsruhe",10,0>, <"Berlin","Mannheim",12,0>, <"Berlin","Essen",14,0>, <"Berlin","Dortmund",16,0>, <"Berlin","Duesseldorf",18,0>, <"Berlin","Koeln",20,0>, <"Berlin","Leipzig",22,0>, <"Muenchen","Hannover",12,0>, <"Muenchen","Frankfurt",10,0>, <"Muenchen","Hamburg",8,0>, <"Muenchen","Norden",6,0>, <"Muenchen","Bremen",4,0>, <"Muenchen","Berlin",2,0>, <"Muenchen","Ulm",2,0>, <"Muenchen","Nuernberg",4,0>, <"Muenchen","Stuttgart",6,0>, <"Muenchen","Karlsruhe",8,0>, <"Muenchen","Mannheim",10,0>, <"Muenchen","Essen",12,0>, <"Muenchen","Dortmund",14,0>, <"Muenchen","Duesseldorf",16,0>, <"Muenchen","Koeln",18,0>, <"Muenchen","Leipzig",20,0>, <"Ulm","Hannover",14,0>, <"Ulm","Frankfurt",12,0>, <"Ulm","Hamburg",10,0>, <"Ulm","Norden",8,0>, <"Ulm","Bremen",6,0>, <"Ulm","Berlin",4,0>, <"Ulm","Muenchen",2,0>, <"Ulm","Nuernberg",2,0>, <"Ulm","Stuttgart",4,0>, <"Ulm","Karlsruhe",6,0>, <"Ulm","Mannheim",8,0>, <"Ulm","Essen",10,0>, <"Ulm","Dortmund",12,0>, <"Ulm","Duesseldorf",14,0>, <"Ulm","Koeln",16,0>, <"Ulm","Leipzig",18,0>, <"Nuernberg","Hannover",16,0>, <"Nuernberg","Frankfurt",14,0>, <"Nuernberg","Hamburg",12,0>, <"Nuernberg","Norden",10,0>, <"Nuernberg","Bremen",8,0>, <"Nuernberg","Berlin",6,0>, <"Nuernberg","Muenchen",4,0>, <"Nuernberg","Ulm",2,0>, <"Nuernberg","Stuttgart",2,0>, <"Nuernberg","Karlsruhe",4,0>, <"Nuernberg","Mannheim",6,0>, <"Nuernberg","Essen",8,0>, <"Nuernberg","Dortmund",10,0>, <"Nuernberg","Duesseldorf",12,0>, <"Nuernberg","Koeln",14,0>, <"Nuernberg","Leipzig",16,0>, <"Stuttgart","Hannover",18,0>, <"Stuttgart","Frankfurt",16,0>, <"Stuttgart","Hamburg",14,0>, <"Stuttgart","Norden",12,0>, <"Stuttgart","Bremen",10,0>, <"Stuttgart","Berlin",8,0>, <"Stuttgart","Muenchen",6,0>, <"Stuttgart","Ulm",4,0>, <"Stuttgart","Nuernberg",2,0>, <"Stuttgart","Karlsruhe",2,0>, <"Stuttgart","Mannheim",4,0>, <"Stuttgart","Essen",6,0>, <"Stuttgart","Dortmund",8,0>, <"Stuttgart","Duesseldorf",10,0>, <"Stuttgart","Koeln",12,0>, <"Stuttgart","Leipzig",14,0>, <"Karlsruhe","Hannover",20,0>, <"Karlsruhe","Frankfurt",18,0>, <"Karlsruhe","Hamburg",16,0>, <"Karlsruhe","Norden",14,0>, <"Karlsruhe","Bremen",12,0>, <"Karlsruhe","Berlin",10,0>, <"Karlsruhe","Muenchen",8,0>, <"Karlsruhe","Ulm",6,0>, <"Karlsruhe","Nuernberg",4,0>, <"Karlsruhe","Stuttgart",2,0>, <"Karlsruhe","Mannheim",2,0>, <"Karlsruhe","Essen",4,0>, <"Karlsruhe","Dortmund",6,0>, <"Karlsruhe","Duesseldorf",8,0>, <"Karlsruhe","Koeln",10,0>, <"Karlsruhe","Leipzig",12,0>, <"Mannheim","Hannover",22,0>, <"Mannheim","Frankfurt",20,0>, <"Mannheim","Hamburg",18,0>, <"Mannheim","Norden",16,0>, <"Mannheim","Bremen",14,0>, <"Mannheim","Berlin",12,0>, <"Mannheim","Muenchen",10,0>, <"Mannheim","Ulm",8,0>, <"Mannheim","Nuernberg",6,0>, <"Mannheim","Stuttgart",4,0>, <"Mannheim","Karlsruhe",2,0>, <"Mannheim","Essen",2,0>, <"Mannheim","Dortmund",4,0>, <"Mannheim","Duesseldorf",6,0>, <"Mannheim","Koeln",8,0>, <"Mannheim","Leipzig",10,0>, <"Essen","Hannover",24,0>, <"Essen","Frankfurt",22,0>, <"Essen","Hamburg",20,0>, <"Essen","Norden",18,0>, <"Essen","Bremen",16,0>, <"Essen","Berlin",14,0>, <"Essen","Muenchen",12,0>, <"Essen","Ulm",10,0>, <"Essen","Nuernberg",8,0>, <"Essen","Stuttgart",6,0>, <"Essen","Karlsruhe",4,0>, <"Essen","Mannheim",2,0>, <"Essen","Dortmund",2,0>, <"Essen","Duesseldorf",4,0>, <"Essen","Koeln",6,0>, <"Essen","Leipzig",8,0>, <"Dortmund","Hannover",26,0>, <"Dortmund","Frankfurt",24,0>, <"Dortmund","Hamburg",22,0>, <"Dortmund","Norden",20,0>, <"Dortmund","Bremen",18,0>, <"Dortmund","Berlin",16,0>, <"Dortmund","Muenchen",14,0>, <"Dortmund","Ulm",12,0>, <"Dortmund","Nuernberg",10,0>, <"Dortmund","Stuttgart",8,0>, <"Dortmund","Karlsruhe",6,0>, <"Dortmund","Mannheim",4,0>, <"Dortmund","Essen",2,0>, <"Dortmund","Duesseldorf",2,0>, <"Dortmund","Koeln",4,0>, <"Dortmund","Leipzig",6,0>, <"Duesseldorf","Hannover",28,0>, <"Duesseldorf","Frankfurt",26,0>, <"Duesseldorf","Hamburg",24,0>, <"Duesseldorf","Norden",22,0>, <"Duesseldorf","Bremen",20,0>, <"Duesseldorf","Berlin",18,0>, <"Duesseldorf","Muenchen",16,0>, <"Duesseldorf","Ulm",14,0>, <"Duesseldorf","Nuernberg",12,0>, <"Duesseldorf","Stuttgart",10,0>, <"Duesseldorf","Karlsruhe",8,0>, <"Duesseldorf","Mannheim",6,0>, <"Duesseldorf","Essen",4,0>, <"Duesseldorf","Dortmund",2,0>, <"Duesseldorf","Koeln",2,0>, <"Duesseldorf","Leipzig",4,0>, <"Koeln","Hannover",30,0>, <"Koeln","Frankfurt",28,0>, <"Koeln","Hamburg",26,0>, <"Koeln","Norden",24,0>, <"Koeln","Bremen",22,0>, <"Koeln","Berlin",20,0>, <"Koeln","Muenchen",18,0>, <"Koeln","Ulm",16,0>, <"Koeln","Nuernberg",14,0>, <"Koeln","Stuttgart",12,0>, <"Koeln","Karlsruhe",10,0>, <"Koeln","Mannheim",8,0>, <"Koeln","Essen",6,0>, <"Koeln","Dortmund",4,0>, <"Koeln","Duesseldorf",2,0>, <"Koeln","Leipzig",2,0>, <"Leipzig","Hannover",32,0>, <"Leipzig","Frankfurt",30,0>, <"Leipzig","Hamburg",28,0>, <"Leipzig","Norden",26,0>, <"Leipzig","Bremen",24,0>, <"Leipzig","Berlin",22,0>, <"Leipzig","Muenchen",20,0>, <"Leipzig","Ulm",18,0>, <"Leipzig","Nuernberg",16,0>, <"Leipzig","Stuttgart",14,0>, <"Leipzig","Karlsruhe",12,0>, <"Leipzig","Mannheim",10,0>, <"Leipzig","Essen",8,0>, <"Leipzig","Dortmund",6,0>, <"Leipzig","Duesseldorf",4,0>, <"Leipzig","Koeln",2,0>};
